db/data/172332460134825033235713473263245027.z3.out
sat
-------------------
871.731387466
